NAME : OMNETRUN
COMMENT : 524.61
TYPE : CVRP
DIMENSION : 21
EDGE_WEIGHT_TYPE : EUC_2D
CAPACITY : 21
NODE_COORD_SECTION
1 0.107093 -0.77924
2 35.7348 -352.934
3 107.76 -873.466
4 137.2 -2000.93
5 131.468 -2758.83
6 84.2028 -3209.99
7 166.82 -3606.14
8 101.618 -4154.43
9 80.8637 -5189.77
10 371.732 -1640.22
11 464.762 -3316.19
12 462.099 -3893.84
13 418.339 -5453.36
14 572.318 -108.376
15 616.988 -609.848
16 528.688 -1101.66
17 548.682 -2378.31
18 584.111 -2875.86
19 601.151 -4435.67
20 713.575 -4998.33
21 606.167 -5864.29
DEMAND_SECTION
1 0
2 1
3 1
4 1
5 1
6 1
7 1
8 1
9 1
10 1
11 1
12 1
13 1
14 1
15 1
16 1
17 1
18 1
19 1
20 1
21 1
DEPOT_SECTION
1
-1
EOF
